1 37 6 13 14 15 16 38 42 43 44 57 59 61 85 86 87 91 92 93 94 95 96 97 98 99 100
2 70 1 10 20 27 30 31 32 62 63 66 69 88 90
3 21 2 4 12 22 23 25 26 28 39 40 41 53 54 55 56 58 67 72 73 74 75 101
4 79 3 9 24 29 33 34 35 50 51 65 68 71 76 77 78 80 81
5 83 5 7 8 17 18 45 46 48 52 60 82 84 89
6 19 11 36 47 49 64
